n_res = 4;
rcap = [15, 15, 59, 57];
rtype = [1, 1, 2, 2];
n_tasks = 10;
modes = [ {1, 2, 3}, {4, 5, 6}, {7, 8, 9}, {10, 11, 12}, {13, 14, 15}, {16, 17, 18}, {19, 20, 21}, {22, 23, 24}, {25, 26, 27}, {28, 29, 30} ];
succ = [ {5, 6}, {7, 10}, {4, 8, 10}, {5, 6}, {9}, {9}, {8}, {}, {}, {} ];
n_opt = 30;
dur = [1, 9, 10, 4, 5, 6, 5, 6, 8, 1, 2, 9, 2, 5, 8, 4, 7, 9, 1, 2, 3, 1, 2, 7, 8, 9, 9, 4, 5, 10];
rreq = [|  8,  0,  7,  5,  2,  0,  2,  2,  1,  9,  0,  8,  0,  0,  6,  4,  0,  0,  9,  0,  9,  4,  4,  0,  8,  4,  6,  0,  0,  6
        |  0,  1,  0,  0,  0, 10,  0,  0,  0,  0,  6,  0,  6,  4,  0,  0,  7,  6,  0,  9,  0,  0,  0,  2,  0,  0,  0,  5,  5,  0
        |  7,  6,  4,  7,  7,  7,  6,  4,  4,  8,  7,  2,  7,  5,  4, 10,  7,  3,  6,  4,  3,  2,  2,  2,  7,  7,  6,  7,  5,  4
        |  6,  6,  6,  8,  6,  6,  4,  4,  1,  6,  6,  3,  5,  5,  4,  8,  7,  2,  9,  6,  4,  7,  5,  2,  5,  3,  4,  8,  7,  5 |];
